10
0 58 98 55 19 94 30 49 8 81 
64 0 27 7 64 72 59 7 25 54 
100 93 0 44 61 4 38 80 19 50 
43 52 63 0 91 77 15 97 50 83 
29 59 61 16 0 79 96 10 33 8 
13 18 71 12 61 0 97 92 13 89 
38 52 41 60 4 22 0 12 49 61 
56 15 35 62 59 31 20 0 92 2 
57 17 97 93 86 29 77 81 0 98 
40 99 67 7 13 11 47 11 36 0 
